175 56 164 141 191 43 65 96 29 110 174 108 97
87 92 48 161 122 8 2 17 76 42 53 192
112 99 88 183 118 32 90 138 52 24
14 18 176 143 31 113 185 169 146 181
38 84 104 100 159 136 6 189 177 102 10 83
152 30 34 62 194 142 128 40 200 59 105
140 196 73 60 35 145 121 111 101 154 119
120 51 26 123 21 126 156 172 197
46 54 125 89 151 129 70 9
106 85 94 12 22 82 47 58 127 77 198 74 45
168 139 187 162 115 16 171 170 78 148
150 137 36 5 3 117 61 49 27 28
63 68 44 158 50 66 131 86 160 130 11 79
57 173 13 20 98 163 95 178 23 19 114 37 39
4 188 15 184 166 153 71 193 33 186 144 179 190 167 107
149 81 1 165 69 134 103 124
157 72 147 135 93 199 109 64 133 195 180 25 116
132 155 67 55 7 41 80 182 75 91
